n = 50;
d = [21, 53, 95, 55, 34, 21, 52, 16, 26, 71, 39, 98, 42, 31, 12, 77, 55, 79, 66, 77, 83, 34, 64, 19, 37, 54, 43, 79, 92, 62, 69, 77, 87, 87, 93, 38, 60, 41, 24, 83, 17, 49, 25, 44, 98, 77, 79, 43, 75, 96];
m = 40;
pre = [1, 2, 3, 4, 6, 7, 8, 9, 11, 12, 13, 14, 16, 17, 18, 19, 21, 22, 23, 24, 26, 27, 28, 29, 31, 32, 33, 34, 36, 37, 38, 39, 41, 42, 43, 44, 46, 47, 48, 49];
post = [2, 3, 4, 5, 7, 8, 9, 10, 12, 13, 14, 15, 17, 18, 19, 20, 22, 23, 24, 25, 27, 28, 29, 30, 32, 33, 34, 35, 37, 38, 39, 40, 42, 43, 44, 45, 47, 48, 49, 50];
o = 5;
disj = [{2,6,15,17,21,29,35,37,44,50}, {1,10,13,16,24,26,33,38,42,49}, {5,9,14,19,23,27,34,36,45,48}, {4,7,11,20,22,30,31,39,41,47}, {3,8,12,18,25,28,32,40,43,46}];